
Gurobi 6.5.2 (mac64) logging started Tue Jun  6 16:24:50 2017

Changed value of parameter TimeLimit to 30.0
   Prev: 1e+100  Min: 0.0  Max: 1e+100  Default: 1e+100
Optimize a model with 52 rows, 54 columns and 154 nonzeros
Coefficient statistics:
  Matrix range    [4e-03, 1e+00]
  Objective range [1e+00, 3e+00]
  Bounds range    [1e+00, 1e+00]
  RHS range       [1e+00, 1e+00]
Found heuristic solution: objective 50
Presolve removed 0 rows and 1 columns
Presolve time: 0.01s
Presolved: 52 rows, 53 columns, 154 nonzeros
Variable types: 53 continuous, 0 integer (0 binary)

Root relaxation: objective 3.517116e+01, 37 iterations, 0.00 seconds

    Nodes    |    Current Node    |     Objective Bounds      |     Work
 Expl Unexpl |  Obj  Depth IntInf | Incumbent    BestBd   Gap | It/Node Time

*    0     0               0      35.1711631   35.17116  0.00%     -    0s

Explored 0 nodes (37 simplex iterations) in 0.02 seconds
Thread count was 4 (of 4 available processors)

Optimal solution found (tolerance 1.00e-04)
Best objective 3.517116310633e+01, best bound 3.517116310633e+01, gap 0.0%

Gurobi 6.5.2 (mac64) logging started Wed Jun  7 16:15:28 2017


Gurobi 6.5.2 (mac64) logging started Wed Jun  7 16:15:45 2017


Gurobi 6.5.2 (mac64) logging started Wed Jun  7 16:15:55 2017


Gurobi 6.5.2 (mac64) logging started Wed Jun  7 16:16:16 2017


Gurobi 6.5.2 (mac64) logging started Wed Jun  7 16:17:28 2017


Gurobi 6.5.2 (mac64) logging started Wed Jun  7 16:18:11 2017


Gurobi 6.5.2 (mac64) logging started Wed Jun  7 16:19:34 2017


Gurobi 6.5.2 (mac64) logging started Wed Jun  7 16:22:06 2017


Gurobi 6.5.2 (mac64) logging started Wed Jun  7 16:24:14 2017


Gurobi 6.5.2 (mac64) logging started Wed Jun  7 16:26:05 2017


Gurobi 6.5.2 (mac64) logging started Wed Jun  7 16:29:33 2017


Gurobi 6.5.2 (mac64) logging started Wed Jun  7 16:30:48 2017


Gurobi 6.5.2 (mac64) logging started Wed Jun  7 16:33:17 2017


Gurobi 6.5.2 (mac64) logging started Wed Jun  7 16:37:56 2017


Gurobi 6.5.2 (mac64) logging started Wed Jun  7 16:39:13 2017


Gurobi 6.5.2 (mac64) logging started Wed Jun  7 16:39:23 2017


Gurobi 6.5.2 (mac64) logging started Wed Jun  7 16:40:11 2017


Gurobi 6.5.2 (mac64) logging started Wed Jun  7 16:42:08 2017


Gurobi 6.5.2 (mac64) logging started Wed Jun  7 16:42:26 2017


Gurobi 6.5.2 (mac64) logging started Wed Jun  7 16:44:43 2017


Gurobi 6.5.2 (mac64) logging started Wed Jun  7 18:46:12 2017


Gurobi 6.5.2 (mac64) logging started Wed Jun  7 18:46:25 2017


Gurobi 6.5.2 (mac64) logging started Wed Jun  7 18:46:36 2017


Gurobi 6.5.2 (mac64) logging started Wed Jun  7 18:46:45 2017


Gurobi 6.5.2 (mac64) logging started Wed Jun  7 20:24:45 2017


Gurobi 6.5.2 (mac64) logging started Fri Jun  9 18:20:21 2017


Gurobi 6.5.2 (mac64) logging started Fri Jun  9 18:30:15 2017


Gurobi 6.5.2 (mac64) logging started Fri Jun  9 18:32:31 2017


Gurobi 6.5.2 (mac64) logging started Fri Jun  9 18:43:37 2017


Gurobi 6.5.2 (mac64) logging started Fri Jun  9 19:02:23 2017


Gurobi 6.5.2 (mac64) logging started Fri Jun  9 19:14:02 2017


Gurobi 6.5.2 (mac64) logging started Fri Jun  9 19:24:01 2017


Gurobi 6.5.2 (mac64) logging started Fri Jun  9 19:35:21 2017


Gurobi 6.5.2 (mac64) logging started Fri Jun  9 20:00:23 2017


Gurobi 6.5.2 (mac64) logging started Sat Jun 10 10:32:50 2017


Gurobi 6.5.2 (mac64) logging started Sat Jun 10 12:11:05 2017


Gurobi 6.5.2 (mac64) logging started Sat Jun 10 12:11:22 2017


Gurobi 6.5.2 (mac64) logging started Sat Jun 10 12:45:55 2017


Gurobi 6.5.2 (mac64) logging started Sat Jun 10 12:45:58 2017


Gurobi 6.5.2 (mac64) logging started Sat Jun 10 12:46:16 2017


Gurobi 6.5.2 (mac64) logging started Sat Jun 10 12:46:18 2017


Gurobi 6.5.2 (mac64) logging started Sat Jun 10 12:46:36 2017


Gurobi 6.5.2 (mac64) logging started Sat Jun 10 12:46:39 2017


Gurobi 6.5.2 (mac64) logging started Mon Jun 12 10:10:01 2017


Gurobi 6.5.2 (mac64) logging started Mon Jun 12 10:38:50 2017


Gurobi 6.5.2 (mac64) logging started Mon Jun 12 10:39:00 2017


Gurobi 6.5.2 (mac64) logging started Mon Jun 12 11:03:24 2017


Gurobi 6.5.2 (mac64) logging started Mon Jun 12 11:03:31 2017


Gurobi 6.5.2 (mac64) logging started Mon Jun 12 11:03:42 2017


Gurobi 6.5.2 (mac64) logging started Tue Jun 13 13:44:08 2017


Gurobi 6.5.2 (mac64) logging started Tue Jun 13 14:49:44 2017


Gurobi 6.5.2 (mac64) logging started Tue Jun 13 14:49:50 2017


Gurobi 6.5.2 (mac64) logging started Tue Jun 13 16:15:31 2017


Gurobi 6.5.2 (mac64) logging started Tue Jun 13 16:15:40 2017


Gurobi 6.5.2 (mac64) logging started Wed Jun 14 16:46:59 2017


Gurobi 6.5.2 (mac64) logging started Thu Jul 13 00:46:03 2017

